0 462 71
1 6 275
2 509 121
3 363 423
4 623 562
5 865 58
6 129 15
7 89 50
8 303 128
9 1 11
10 49 21
11 131 802
12 145 512
13 295 591
14 475 306
15 70 244
16 99 782
17 265 610
18 107 13
19 2 241
20 8 286
21 265 77
22 209 299
23 196 71
24 428 436
25 14 754
26 570 55
27 144 244
28 412 67
29 167 191
30 282 50